NAME: random-4-32210
TYPE: TSP
COMMENT: size=4 seed=32210
DIMENSION: 10
EDGE_WEIGHT_TYPE: EUC_2D
NODE_COORD_SECTION
+0 470 598
-0 470 598
+1 780 476
-1 35 78
+2 470 308
-2 656 340
+3 365 709
-3 783 163
+4 471 281
-4 597 176
PRECEDENCE_SECTION
+0 -0
+1 -1
+2 -2
+3 -3
+4 -4
EOF
